(set-info :source  loris-7.ddns.comp.nus.edu.sg/~project/hip/) 
;Variables declarations
(declare-fun bhr_13795 () Int)
(declare-fun nr_13794 () Int)
(declare-fun bhl_13792 () Int)
(declare-fun nl_13791 () Int)
(declare-fun r_13793 () Int)
(declare-fun r_13633 () Int)
(declare-fun l_13790 () Int)
(declare-fun l_13630 () Int)
(declare-fun v_13789 () Int)
(declare-fun v_13629 () Int)
(declare-fun v_bool_90_4883_primed () Int)
(declare-fun flted_12_13628 () Int)
(declare-fun flted_12_13627 () Int)
(declare-fun flted_12_13626 () Int)
(declare-fun cl () Int)
(declare-fun n () Int)
(declare-fun nr_13634 () Int)
(declare-fun nl_13631 () Int)
(declare-fun bhl_13632 () Int)
(declare-fun bhr_13635 () Int)
(declare-fun bh () Int)
(declare-fun v_bool_87_4884_primed () Int)
(declare-fun x_primed () Int)
(declare-fun x () Int)
(declare-fun res () Int)
(declare-fun v_boolean_93_4882_primed () Int)
;Relations declarations
;Axioms assertions
;Antecedent
(assert (= bhr_13795 bhr_13635))
(assert (= nr_13794 nr_13634))
(assert (= bhl_13792 bhl_13632))
(assert (= nl_13791 nl_13631))
(assert (= r_13793 r_13633))
(assert (= l_13790 l_13630))
(assert (= v_13789 v_13629))
(assert (not (> v_bool_90_4883_primed 0)))
(assert (not (= flted_12_13628 0)))
(assert (= flted_12_13628 1))
(assert (= flted_12_13627 0))
(assert (= flted_12_13626 0))
(assert (= cl 1))
(assert (= n (+ (+ nr_13634 1) nl_13631)))
(assert (= bhl_13632 bh))
(assert (= bhr_13635 bh))
(assert (not (> v_bool_87_4884_primed 0)))
(assert (> x_primed 0))
(assert (= x_primed x))
(assert (> v_boolean_93_4882_primed 0))
(assert (= res v_boolean_93_4882_primed))
;Negation of Consequence
(assert (not false))
(check-sat)